proyfinal/src/viki/013/experimentInOfficeAgust.take6.output/9fd748ad-e98f-4931-aa2e-22295ba3764e.als.dat
{'cnf.clauses': '118081',
 'cnf.totvars': '69608',
 'conflict literals': '44',
 'conflicts': '22',
 'decisions': '3085',
 'memused.mb': '15.10',
 'outcome': 'UNSAT',
 'propagations': '42491',
 'restarts': '1',
 'solver.msecs': 27,
 'task.msecs': 68}
