proyfinal/src/viki/013/experimentInOfficeAgust.take6.output/9fd748ad-e98f-4931-aa2e-22295ba3764e.als.out
Reading from standard input... Use '--help' for help.
============================[ Problem Statistics ]=============================
|                                                                             |
|  Number of variables:         69608                                         |
|  Number of clauses:          118081                                         |
|  Parse time:                   0.02 s                                       |
|                                                                             |
============================[ Search Statistics ]==============================
| Conflicts |          ORIGINAL         |          LEARNT          | Progress |
|           |    Vars  Clauses Literals |    Limit  Clauses Lit/Cl |          |
===============================================================================
===============================================================================
restarts              : 1
conflicts             : 22             (789 /sec)
decisions             : 3085           (0.00 % random) (110665 /sec)
propagations          : 42491          (1524231 /sec)
conflict literals     : 44             (4.35 % deleted)
Memory used           : 15.10 MB
CPU time              : 0.027877 s

UNSATISFIABLE
